Data path: /scratch/opt/lxu/CFLG/benchmarks/random_A
Instance: r_10_0.3_12.txt
Result path: /scratch/opt/lxu/CFLG/results/random_A
Solver: Gurobi
Time limit: 7200
Formulation: LEFP
Cover: Small
julia --project=. src/main.jl /scratch/opt/lxu/CFLG/benchmarks/random_A r_10_0.3_12.txt /scratch/opt/lxu/CFLG/results/random_A Gurobi 7200 LEFP Small
The latest version of Julia in the `release` channel is 1.11.6+0.x64.linux.gnu. You currently have `1.11.4+0.x64.linux.gnu` installed. Run:

  juliaup update

in your terminal shell to install Julia 1.11.6+0.x64.linux.gnu and update the `release` channel to that version.
/scratch/opt/lxu/CFLG/benchmarks/random_A Gurobi 7200.0 /scratch/opt/lxu/CFLG/results/random_A r_10_0.3_12.txt LEFP Small
/scratch/opt/lxu/CFLG/benchmarks/random_A/r_10_0.3_12.txt

 read graph
data loaded


after absorb:8 10

max_piece:10
problem_graph/original graph: node: 9/10 edge: 11/12 dlt: 0.152625614307883 break_avg_len: 0.6660026806162167 break_max_len: 1.2728694279731012Set parameter TokenServer to value "solice01.zib.de"
Set parameter Threads to value 1
Set parameter OutputFlag to value 1
Gurobi Optimizer version 12.0.1 build v12.0.1rc0 (linux64 - "Debian GNU/Linux 12 (bookworm)")

CPU model: Intel(R) Xeon(R) Gold 5122 CPU @ 3.60GHz, instruction set [SSE2|AVX|AVX2|AVX512]
Thread count: 8 physical cores, 16 logical processors, using up to 1 threads

Non-default parameters:
Threads  1

Optimize a model with 20 rows, 33 columns and 55 nonzeros
Model fingerprint: 0x2d802a8a
Coefficient statistics:
  Matrix range     [1e+00, 1e+00]
  Objective range  [1e+00, 1e+00]
  Bounds range     [1e+00, 1e+00]
  RHS range        [1e+00, 1e+00]
Presolve removed 7 rows and 8 columns
Presolve time: 0.02s
Presolved: 13 rows, 25 columns, 40 nonzeros

Iteration    Objective       Primal Inf.    Dual Inf.      Time
       0    1.1000000e+01   5.000000e+00   0.000000e+00      0s
      10    8.0000000e+00   0.000000e+00   0.000000e+00      0s

Solved in 10 iterations and 0.02 seconds (0.00 work units)
Optimal objective  8.000000000e+00

User-callback calls 88, time in user-callback 0.01 sec
elapsed CPU time: 1.264655 seconds
Set parameter TokenServer to value "solice01.zib.de"
Set parameter Threads to value 1
Set parameter OutputFlag to value 1
Set parameter MIPGap to value 0.0001
Set parameter TimeLimit to value 7198.735345

 more cuts: false 0.152625614307883 false
is_attach:falseformulation:LEFP9 2 1

 model loaded

Gurobi Optimizer version 12.0.1 build v12.0.1rc0 (linux64 - "Debian GNU/Linux 12 (bookworm)")

CPU model: Intel(R) Xeon(R) Gold 5122 CPU @ 3.60GHz, instruction set [SSE2|AVX|AVX2|AVX512]
Thread count: 8 physical cores, 16 logical processors, using up to 1 threads

Non-default parameters:
TimeLimit  7198.735345
Threads  1

Optimize a model with 180 rows, 111 columns and 378 nonzeros
Model fingerprint: 0x5569a0a4
Variable types: 31 continuous, 80 integer (80 binary)
Coefficient statistics:
  Matrix range     [5e-02, 1e+00]
  Objective range  [1e+00, 1e+00]
  Bounds range     [1e-01, 1e+00]
  RHS range        [9e-03, 1e+00]
Found heuristic solution: objective 27.0000000
Presolve removed 109 rows and 46 columns
Presolve time: 0.00s
Presolved: 71 rows, 65 columns, 233 nonzeros
Variable types: 28 continuous, 37 integer (37 binary)

Root relaxation: objective 2.000000e+01, 54 iterations, 0.00 seconds (0.00 work units)

    Nodes    |    Current Node    |     Objective Bounds      |     Work
 Expl Unexpl |  Obj  Depth IntInf | Incumbent    BestBd   Gap | It/Node Time

     0     0   20.00000    0   19   27.00000   20.00000  25.9%     -    0s
H    0     0                      24.0000000   20.00000  16.7%     -    0s
     0     0   20.43096    0   25   24.00000   20.43096  14.9%     -    0s
     0     0   20.68139    0   27   24.00000   20.68139  13.8%     -    0s
     0     0   20.68139    0   27   24.00000   20.68139  13.8%     -    0s
     0     0   21.19997    0   24   24.00000   21.19997  11.7%     -    0s
     0     0   21.25750    0   24   24.00000   21.25750  11.4%     -    0s
     0     0   21.26159    0   24   24.00000   21.26159  11.4%     -    0s
     0     0   21.26159    0   24   24.00000   21.26159  11.4%     -    0s
     0     0   21.37975    0   22   24.00000   21.37975  10.9%     -    0s
     0     0   21.62525    0   23   24.00000   21.62525  9.89%     -    0s
     0     0   21.62525    0   26   24.00000   21.62525  9.89%     -    0s
     0     0   21.62525    0   25   24.00000   21.62525  9.89%     -    0s
     0     0   21.62525    0   25   24.00000   21.62525  9.89%     -    0s
     0     0   21.62525    0   25   24.00000   21.62525  9.89%     -    0s
     0     2   21.62525    0   25   24.00000   21.62525  9.89%     -    0s

Cutting planes:
  Gomory: 3
  Cover: 21
  Implied bound: 11
  Clique: 1
  MIR: 21
  StrongCG: 2
  GUB cover: 1
  Inf proof: 2
  RLT: 4
  Relax-and-lift: 2

Explored 188 nodes (1640 simplex iterations) in 0.08 seconds (0.03 work units)
Thread count was 1 (of 16 available processors)

Solution count 2: 24 27 

Optimal solution found (tolerance 1.00e-04)
Best objective 2.400000000000e+01, best bound 2.400000000000e+01, gap 0.0000%

User-callback calls 1017, time in user-callback 0.00 sec

 sepatime0 0 0
24.0
Stat(MathOptInterface.OPTIMAL, 24.0, 24.0, 0.0, 0.0, 1.264655, 0.08000993728637695, 188, Main.CFLG.LEFP, "", #undef)
